words_hard_train/9865.qaiger
aag 116 16 0 1 100
2
4
8
14
16
24
32
34
40
44
52
70
78
176
186
204
232
6 2 4
10 8 4
12 7 11
18 15 17
20 19 4
22 12 21
26 23 24
28 22 25
30 27 29
36 32 35
38 37 35
42 38 41
46 43 44
48 42 45
50 47 49
54 36 53
56 54 41
58 51 57
60 50 56
62 59 61
64 30 62
66 24 4
68 22 67
72 69 70
74 68 71
76 73 75
80 49 78
82 48 79
84 81 83
86 85 61
88 84 60
90 87 89
92 76 90
94 65 93
96 9 52
98 2 32
100 96 99
102 53 32
104 101 103
106 10 3
108 11 2
110 107 109
112 110 33
114 104 113
116 13 14
118 12 15
120 117 119
122 33 34
124 123 103
126 124 37
128 127 55
130 121 129
132 114 131
134 120 128
136 133 135
138 119 4
140 139 17
142 138 16
144 141 143
146 55 39
148 147 41
150 146 40
152 149 151
154 145 153
156 137 155
158 144 152
160 157 159
162 31 63
164 161 163
166 94 165
168 77 91
170 167 169
172 70 4
174 68 173
178 175 176
180 174 177
182 179 181
184 89 83
188 185 187
190 184 186
192 189 191
194 182 192
196 171 195
198 183 193
200 197 199
202 82 187
206 202 205
208 203 204
210 207 209
212 201 210
214 88 187
216 180 4
218 214 217
220 212 219
222 200 211
224 218 222
226 221 225
228 215 216
230 228 223
232 226 231
i0 1 x2[1]
i1 1 x2[7]
i2 1 x2[0]
i3 1 x2[2]
i4 1 x2[3]
i5 1 x2[4]
i6 2 y1[1]
i7 2 y1[2]
i8 2 y1[3]
i9 2 y1[4]
i10 2 y1[0]
i11 1 x2[5]
i12 2 y1[5]
i13 1 x2[6]
i14 2 y1[6]
i15 2 y1[7]
o0 bv[0]
c
simplified
  >=
    abs
      1 x2
    subtract
      2 y1
      add
        1
        1
