words_hard_train/9865.qaiger.qdimacs
p cnf 116 301
a 1 2 35 4 7 8 12 88 0
e 3 5 6 9 10 11 13 14 15 16 17 18 19 20 21 22 23 24 25 26 27 28 29 30 31 32 33 34 36 37 38 39 40 41 42 43 44 45 46 47 48 49 50 51 52 53 54 55 56 57 58 59 60 61 62 63 64 65 66 67 68 69 70 71 72 73 74 75 76 77 78 79 80 81 82 83 84 85 86 87 89 90 91 92 93 94 95 96 97 98 99 100 101 102 103 104 105 106 107 108 109 110 111 112 113 114 115 116 0
-1 -2 3 0
1 -3 0
2 -3 0
-4 -2 5 0
4 -5 0
2 -5 0
3 5 6 0
-3 -6 0
-5 -6 0
7 8 9 0
-7 -9 0
-8 -9 0
9 -2 10 0
-9 -10 0
2 -10 0
-6 10 11 0
6 -11 0
-10 -11 0
11 -12 13 0
-11 -13 0
12 -13 0
-11 12 14 0
11 -14 0
-12 -14 0
13 14 15 0
-13 -15 0
-14 -15 0
-16 17 18 0
16 -18 0
-17 -18 0
18 17 19 0
-18 -19 0
-17 -19 0
-19 20 21 0
19 -21 0
-20 -21 0
21 -22 23 0
-21 -23 0
22 -23 0
-21 22 24 0
21 -24 0
-22 -24 0
23 24 25 0
-23 -25 0
-24 -25 0
-18 26 27 0
18 -27 0
-26 -27 0
-27 20 28 0
27 -28 0
-20 -28 0
25 28 29 0
-25 -29 0
-28 -29 0
-25 -28 30 0
25 -30 0
28 -30 0
29 30 31 0
-29 -31 0
-30 -31 0
-15 -31 32 0
15 -32 0
31 -32 0
-12 -2 33 0
12 -33 0
2 -33 0
-11 33 34 0
11 -34 0
-33 -34 0
34 -35 36 0
-34 -36 0
35 -36 0
-34 35 37 0
34 -37 0
-35 -37 0
36 37 38 0
-36 -38 0
-37 -38 0
24 -39 40 0
-24 -40 0
39 -40 0
-24 39 41 0
24 -41 0
-39 -41 0
40 41 42 0
-40 -42 0
-41 -42 0
42 30 43 0
-42 -43 0
-30 -43 0
-42 -30 44 0
42 -44 0
30 -44 0
43 44 45 0
-43 -45 0
-44 -45 0
-38 -45 46 0
38 -46 0
45 -46 0
32 46 47 0
-32 -47 0
-46 -47 0
4 -26 48 0
-4 -48 0
26 -48 0
-1 -16 49 0
1 -49 0
16 -49 0
-48 49 50 0
48 -50 0
-49 -50 0
26 -16 51 0
-26 -51 0
16 -51 0
50 51 52 0
-50 -52 0
-51 -52 0
-5 1 53 0
5 -53 0
-1 -53 0
5 -1 54 0
-5 -54 0
1 -54 0
53 54 55 0
-53 -55 0
-54 -55 0
-55 16 56 0
55 -56 0
-16 -56 0
-52 56 57 0
52 -57 0
-56 -57 0
6 -7 58 0
-6 -58 0
7 -58 0
-6 7 59 0
6 -59 0
-7 -59 0
58 59 60 0
-58 -60 0
-59 -60 0
16 -17 61 0
-16 -61 0
17 -61 0
61 51 62 0
-61 -62 0
-51 -62 0
-62 18 63 0
62 -63 0
-18 -63 0
63 27 64 0
-63 -64 0
-27 -64 0
60 64 65 0
-60 -65 0
-64 -65 0
-57 65 66 0
57 -66 0
-65 -66 0
-60 -64 67 0
60 -67 0
64 -67 0
66 67 68 0
-66 -68 0
-67 -68 0
59 -2 69 0
-59 -69 0
2 -69 0
69 8 70 0
-69 -70 0
-8 -70 0
-69 -8 71 0
69 -71 0
8 -71 0
70 71 72 0
-70 -72 0
-71 -72 0
27 19 73 0
-27 -73 0
-19 -73 0
73 20 74 0
-73 -74 0
-20 -74 0
-73 -20 75 0
73 -75 0
20 -75 0
74 75 76 0
-74 -76 0
-75 -76 0
72 76 77 0
-72 -77 0
-76 -77 0
68 77 78 0
-68 -78 0
-77 -78 0
-72 -76 79 0
72 -79 0
76 -79 0
78 79 80 0
-78 -80 0
-79 -80 0
15 31 81 0
-15 -81 0
-31 -81 0
80 81 82 0
-80 -82 0
-81 -82 0
-47 82 83 0
47 -83 0
-82 -83 0
38 45 84 0
-38 -84 0
-45 -84 0
83 84 85 0
-83 -85 0
-84 -85 0
-35 -2 86 0
35 -86 0
2 -86 0
-34 86 87 0
34 -87 0
-86 -87 0
87 -88 89 0
-87 -89 0
88 -89 0
-87 88 90 0
87 -90 0
-88 -90 0
89 90 91 0
-89 -91 0
-90 -91 0
44 41 92 0
-44 -92 0
-41 -92 0
92 93 94 0
-92 -94 0
-93 -94 0
-92 -93 95 0
92 -95 0
93 -95 0
94 95 96 0
-94 -96 0
-95 -96 0
-91 -96 97 0
91 -97 0
96 -97 0
85 97 98 0
-85 -98 0
-97 -98 0
91 96 99 0
-91 -99 0
-96 -99 0
98 99 100 0
-98 -100 0
-99 -100 0
-41 93 101 0
41 -101 0
-93 -101 0
-101 102 103 0
101 -103 0
-102 -103 0
101 -102 104 0
-101 -104 0
102 -104 0
103 104 105 0
-103 -105 0
-104 -105 0
100 -105 106 0
-100 -106 0
105 -106 0
-44 93 107 0
44 -107 0
-93 -107 0
-90 -2 108 0
90 -108 0
2 -108 0
-107 108 109 0
107 -109 0
-108 -109 0
-106 109 110 0
106 -110 0
-109 -110 0
-100 105 111 0
100 -111 0
-105 -111 0
-109 -111 112 0
109 -112 0
111 -112 0
110 112 113 0
-110 -113 0
-112 -113 0
107 -108 114 0
-107 -114 0
108 -114 0
-114 111 115 0
114 -115 0
-111 -115 0
-113 115 116 0
113 -116 0
-115 -116 0
116 0
